min: c;

c = 3.74343360179095 * u4_t1_h1 + 3.32999958554622 * u4_t1_h2 + 3.71142020069224 * u4_t1_h3 + 3.47528183267688 * u4_t1_h4 + 3.47528183267688 * u4_t10_h4 + 4.01906645984025 * u4_t1_h5 + 4.01906645984025 * u4_t10_h5 + 3.55980450490039 * u4_t1_h6 + 3.55980450490039 * u4_t10_h6 + 4.09373673120588 * u4_t1_h7 + 4.09373673120588 * u4_t10_h7 + 5.03435758113366 * u4_t1_h8 + 5.03435758113366 * u4_t9_h8 + 5.03435758113366 * u4_t10_h8 + 4.73035042531013 * u4_t9_h9 + 4.73035042531013 * u4_t10_h9 + 5.28887877683838 * u4_t9_h10 + 5.28887877683838 * u4_t10_h10 + 3.64113784881666 * u4_t2_h11 + 3.64113784881666 * u4_t4_h11 + 3.64113784881666 * u4_t9_h11 + 3.64113784881666 * u4_t10_h11 + 6.61934911228908 * u4_t2_h12 + 6.61934911228908 * u4_t3_h12 + 6.61934911228908 * u4_t4_h12 + 6.61934911228908 * u4_t8_h12 + 6.61934911228908 * u4_t9_h12 + 6.61934911228908 * u4_t10_h12 + 4.43821084519347 * u4_t2_h13 + 4.43821084519347 * u4_t3_h13 + 4.43821084519347 * u4_t4_h13 + 4.43821084519347 * u4_t8_h13 + 4.43821084519347 * u4_t9_h13 + 5.5502152988653 * u4_t2_h14 + 5.5502152988653 * u4_t3_h14 + 5.5502152988653 * u4_t4_h14 + 5.5502152988653 * u4_t8_h14 + 5.5502152988653 * u4_t9_h14 + 6.01603364717817 * u4_t2_h15 + 6.01603364717817 * u4_t3_h15 + 6.01603364717817 * u4_t4_h15 + 6.01603364717817 * u4_t8_h15 + 6.01603364717817 * u4_t9_h15 + 6.25721219912356 * u4_t2_h16 + 6.25721219912356 * u4_t3_h16 + 6.25721219912356 * u4_t4_h16 + 6.25721219912356 * u4_t5_h16 + 6.25721219912356 * u4_t8_h16 + 6.25721219912356 * u4_t9_h16 + 6.71996505501533 * u4_t2_h17 + 6.71996505501533 * u4_t3_h17 + 6.71996505501533 * u4_t5_h17 + 6.71996505501533 * u4_t8_h17 + 6.71996505501533 * u4_t9_h17 + 6.5354712182655 * u4_t2_h18 + 6.5354712182655 * u4_t3_h18 + 6.5354712182655 * u4_t5_h18 + 6.5354712182655 * u4_t8_h18 + 6.5354712182655 * u4_t9_h18 + 6.07735787951009 * u4_t2_h19 + 6.07735787951009 * u4_t3_h19 + 6.07735787951009 * u4_t6_h19 + 6.07735787951009 * u4_t8_h19 + 6.07735787951009 * u4_t9_h19 + 5.52958183224246 * u4_t2_h20 + 5.52958183224246 * u4_t6_h20 + 5.52958183224246 * u4_t9_h20 + 5.01883471106026 * u4_t6_h21 + 5.88225009243283 * u4_t6_h22 + 5.88225009243283 * u4_t7_h22 + 4.99615666492031 * u4_t6_h23 + 4.99615666492031 * u4_t7_h23;
0 <= u4_t1_h1 <= 1;
0 <= u4_t1_h2 <= 1;
0 <= u4_t1_h3 <= 1;
0 <= u4_t1_h4 <= 1;
0 <= u4_t1_h5 <= 1;
0 <= u4_t1_h6 <= 1;
0 <= u4_t1_h7 <= 1;
0 <= u4_t1_h8 <= 1;
u4_t1_h1 + u4_t1_h2 + u4_t1_h3 + u4_t1_h4 + u4_t1_h5 + u4_t1_h6 + u4_t1_h7 + u4_t1_h8 = 1;
0 <= u4_t2_h11 <= 1;
0 <= u4_t2_h12 <= 1;
0 <= u4_t2_h13 <= 1;
0 <= u4_t2_h14 <= 1;
0 <= u4_t2_h15 <= 1;
0 <= u4_t2_h16 <= 1;
0 <= u4_t2_h17 <= 1;
0 <= u4_t2_h18 <= 1;
0 <= u4_t2_h19 <= 1;
0 <= u4_t2_h20 <= 1;
u4_t2_h11 + u4_t2_h12 + u4_t2_h13 + u4_t2_h14 + u4_t2_h15 + u4_t2_h16 + u4_t2_h17 + u4_t2_h18 + u4_t2_h19 + u4_t2_h20 = 2;
0 <= u4_t3_h12 <= 1;
0 <= u4_t3_h13 <= 1;
0 <= u4_t3_h14 <= 1;
0 <= u4_t3_h15 <= 1;
0 <= u4_t3_h16 <= 1;
0 <= u4_t3_h17 <= 1;
0 <= u4_t3_h18 <= 1;
0 <= u4_t3_h19 <= 1;
u4_t3_h12 + u4_t3_h13 + u4_t3_h14 + u4_t3_h15 + u4_t3_h16 + u4_t3_h17 + u4_t3_h18 + u4_t3_h19 = 3;
0 <= u4_t4_h11 <= 1;
0 <= u4_t4_h12 <= 1;
0 <= u4_t4_h13 <= 1;
0 <= u4_t4_h14 <= 1;
0 <= u4_t4_h15 <= 1;
0 <= u4_t4_h16 <= 1;
u4_t4_h11 + u4_t4_h12 + u4_t4_h13 + u4_t4_h14 + u4_t4_h15 + u4_t4_h16 = 3;
0 <= u4_t5_h16 <= 1;
0 <= u4_t5_h17 <= 1;
0 <= u4_t5_h18 <= 1;
u4_t5_h16 + u4_t5_h17 + u4_t5_h18 = 1;
0 <= u4_t6_h19 <= 1;
0 <= u4_t6_h20 <= 1;
0 <= u4_t6_h21 <= 1;
0 <= u4_t6_h22 <= 1;
0 <= u4_t6_h23 <= 1;
u4_t6_h19 + u4_t6_h20 + u4_t6_h21 + u4_t6_h22 + u4_t6_h23 = 3;
0 <= u4_t7_h22 <= 1;
0 <= u4_t7_h23 <= 1;
u4_t7_h22 + u4_t7_h23 = 1;
0 <= u4_t8_h12 <= 1;
0 <= u4_t8_h13 <= 1;
0 <= u4_t8_h14 <= 1;
0 <= u4_t8_h15 <= 1;
0 <= u4_t8_h16 <= 1;
0 <= u4_t8_h17 <= 1;
0 <= u4_t8_h18 <= 1;
0 <= u4_t8_h19 <= 1;
u4_t8_h12 + u4_t8_h13 + u4_t8_h14 + u4_t8_h15 + u4_t8_h16 + u4_t8_h17 + u4_t8_h18 + u4_t8_h19 = 2;
0 <= u4_t9_h8 <= 1;
0 <= u4_t9_h9 <= 1;
0 <= u4_t9_h10 <= 1;
0 <= u4_t9_h11 <= 1;
0 <= u4_t9_h12 <= 1;
0 <= u4_t9_h13 <= 1;
0 <= u4_t9_h14 <= 1;
0 <= u4_t9_h15 <= 1;
0 <= u4_t9_h16 <= 1;
0 <= u4_t9_h17 <= 1;
0 <= u4_t9_h18 <= 1;
0 <= u4_t9_h19 <= 1;
0 <= u4_t9_h20 <= 1;
u4_t9_h8 + u4_t9_h9 + u4_t9_h10 + u4_t9_h11 + u4_t9_h12 + u4_t9_h13 + u4_t9_h14 + u4_t9_h15 + u4_t9_h16 + u4_t9_h17 + u4_t9_h18 + u4_t9_h19 + u4_t9_h20 = 2;
0 <= u4_t10_h4 <= 1;
0 <= u4_t10_h5 <= 1;
0 <= u4_t10_h6 <= 1;
0 <= u4_t10_h7 <= 1;
0 <= u4_t10_h8 <= 1;
0 <= u4_t10_h9 <= 1;
0 <= u4_t10_h10 <= 1;
0 <= u4_t10_h11 <= 1;
0 <= u4_t10_h12 <= 1;
u4_t10_h4 + u4_t10_h5 + u4_t10_h6 + u4_t10_h7 + u4_t10_h8 + u4_t10_h9 + u4_t10_h10 + u4_t10_h11 + u4_t10_h12 = 2;
